GLPSOL: GLPK LP/MIP Solver, v4.65
Parameter(s) specified in the command line:
 --cpxlp /tmp/5d9cc941d288447c9b5c41b7ae2b65a5-pulp.lp -o /tmp/5d9cc941d288447c9b5c41b7ae2b65a5-pulp.sol
 --tmlim 15
Reading problem data from '/tmp/5d9cc941d288447c9b5c41b7ae2b65a5-pulp.lp'...
24589 rows, 7200 columns, 66220 non-zeros
35653 lines were read
GLPK Simplex Optimizer, v4.65
24589 rows, 7200 columns, 66220 non-zeros
Preprocessing...
4195 rows, 2335 columns, 13039 non-zeros
Scaling...
 A: min|aij| =  5.000e-01  max|aij| =  5.000e+00  ratio =  1.000e+01
Problem data seem to be well scaled
Constructing initial basis...
Size of triangular part is 4176
      0: obj =   2.600000000e+01 inf =   8.005e+02 (268)
    974: obj =   3.600000000e+01 inf =   4.774e-15 (0) 6
*  1319: obj =   4.350000000e+01 inf =   2.057e-14 (0) 3
OPTIMAL LP SOLUTION FOUND
Time used:   0.1 secs
Memory used: 17.1 Mb (17962312 bytes)
Writing basic solution to '/tmp/5d9cc941d288447c9b5c41b7ae2b65a5-pulp.sol'...
GLPSOL: GLPK LP/MIP Solver, v4.65
Parameter(s) specified in the command line:
 --cpxlp /tmp/799dcaafd5074a7eb35e379916357735-pulp.lp -o /tmp/799dcaafd5074a7eb35e379916357735-pulp.sol
 --tmlim 15
Reading problem data from '/tmp/799dcaafd5074a7eb35e379916357735-pulp.lp'...
24589 rows, 7200 columns, 66220 non-zeros
7200 integer variables, all of which are binary
35653 lines were read
GLPK Integer Optimizer, v4.65
24589 rows, 7200 columns, 66220 non-zeros
7200 integer variables, all of which are binary
Preprocessing...
1152 hidden packing inequaliti(es) were detected
8 hidden covering inequaliti(es) were detected
4195 rows, 2335 columns, 13039 non-zeros
2335 integer variables, all of which are binary
Scaling...
 A: min|aij| =  5.000e-01  max|aij| =  5.000e+00  ratio =  1.000e+01
Problem data seem to be well scaled
Constructing initial basis...
Size of triangular part is 4176
Solving LP relaxation...
GLPK Simplex Optimizer, v4.65
4195 rows, 2335 columns, 13039 non-zeros
      0: obj =   2.600000000e+01 inf =   8.005e+02 (268)
    970: obj =   3.581250000e+01 inf =   2.748e-15 (0) 6
*  1344: obj =   4.350000000e+01 inf =   2.248e-15 (0) 4
OPTIMAL LP SOLUTION FOUND
Integer optimization begins...
Long-step dual simplex will be used
+  1344: mip =     not found yet <=              +inf        (1; 0)
+  1528: >>>>>   4.300000000e+01 <=   4.350000000e+01   1.2% (20; 1)
+ 16616: mip =   4.300000000e+01 <=   4.350000000e+01   1.2% (160; 495)
+ 34349: mip =   4.300000000e+01 <=   4.350000000e+01   1.2% (324; 920)
+ 48105: mip =   4.300000000e+01 <=   4.350000000e+01   1.2% (495; 1250)
TIME LIMIT EXCEEDED; SEARCH TERMINATED
Time used:   15.1 secs
Memory used: 17.0 Mb (17856959 bytes)
Writing MIP solution to '/tmp/799dcaafd5074a7eb35e379916357735-pulp.sol'...
